SECTION Graph
Nodes 1709
Edges 2963
E 1 2 5
E 2 3 5
E 3 4 5
E 4 5 5
E 5 6 5
E 6 7 5
E 7 8 5
E 8 9 5
E 9 10 5
E 10 11 5
E 11 12 5
E 12 13 5
E 13 14 5
E 14 15 5
E 15 16 5
E 16 17 5
E 17 18 5
E 18 19 5
E 19 20 5
E 20 21 5
E 21 22 5
E 22 23 5
E 23 24 5
E 24 25 5
E 25 26 5
E 26 27 5
E 27 28 5
E 28 29 5
E 29 30 5
E 30 31 5
E 31 32 5
E 32 33 5
E 33 34 5
E 34 35 5
E 35 36 5
E 36 37 5
E 37 38 5
E 38 39 5
E 39 40 5
E 40 41 5
E 41 42 5
E 42 43 5
E 43 44 5
E 44 45 5
E 45 46 5
E 46 47 5
E 47 48 5
E 48 49 5
E 49 50 5
E 50 51 5
E 51 52 5
E 52 53 5
E 53 54 5
E 54 55 5
E 55 56 5
E 56 57 5
E 57 58 5
E 58 59 5
E 59 60 5
E 60 61 5
E 61 62 5
E 64 65 5
E 65 66 5
E 66 67 5
E 68 69 5
E 69 70 5
E 70 71 5
E 71 72 5
E 72 73 5
E 73 74 5
E 74 75 5
E 75 76 5
E 76 77 5
E 77 78 5
E 78 79 5
E 81 82 5
E 1 83 13
E 2 84 13
E 3 85 13
E 4 86 13
E 5 87 13
E 6 88 13
E 7 89 13
E 8 90 13
E 9 91 13
E 10 92 13
E 11 93 13
E 12 94 13
E 13 95 13
E 14 96 13
E 15 97 13
E 16 98 13
E 17 99 13
E 18 100 13
E 19 101 13
E 20 102 13
E 21 103 13
E 22 104 13
E 23 105 13
E 24 106 13
E 27 109 13
E 28 110 13
E 29 111 13
E 30 112 13
E 31 113 13
E 32 114 13
E 33 115 13
E 34 116 13
E 35 117 13
E 36 118 13
E 37 119 13
E 38 120 13
E 39 121 13
E 40 122 13
E 41 123 13
E 42 124 13
E 43 125 13
E 44 126 13
E 45 127 13
E 46 128 13
E 47 129 13
E 48 130 13
E 49 131 13
E 50 132 13
E 51 133 13
E 52 134 13
E 53 135 13
E 55 136 13
E 56 137 13
E 57 138 13
E 58 139 13
E 59 140 13
E 60 141 13
E 62 142 13
E 63 144 13
E 64 145 13
E 65 146 13
E 67 147 13
E 68 148 13
E 69 149 13
E 70 150 13
E 72 151 13
E 73 152 13
E 74 153 13
E 75 154 13
E 76 155 13
E 77 156 13
E 79 157 13
E 80 158 13
E 81 160 13
E 82 161 13
E 83 84 5
E 84 85 5
E 85 86 5
E 86 87 5
E 87 88 5
E 88 89 5
E 89 90 5
E 90 91 5
E 91 92 5
E 92 93 5
E 93 94 5
E 94 95 5
E 95 96 5
E 96 97 5
E 97 98 5
E 98 99 5
E 99 100 5
E 100 101 5
E 101 102 5
E 102 103 5
E 103 104 5
E 104 105 5
E 105 106 5
E 106 107 5
E 107 108 5
E 108 109 5
E 109 110 5
E 110 111 5
E 111 112 5
E 112 113 5
E 113 114 5
E 114 115 5
E 115 116 5
E 116 117 5
E 117 118 5
E 118 119 5
E 119 120 5
E 120 121 5
E 121 122 5
E 122 123 5
E 123 124 5
E 124 125 5
E 125 126 5
E 126 127 5
E 127 128 5
E 128 129 5
E 129 130 5
E 130 131 5
E 131 132 5
E 132 133 5
E 133 134 5
E 134 135 5
E 136 137 5
E 137 138 5
E 138 139 5
E 139 140 5
E 140 141 5
E 142 143 5
E 143 144 5
E 145 146 5
E 148 149 5
E 149 150 5
E 151 152 5
E 152 153 5
E 153 154 5
E 154 155 5
E 155 156 5
E 158 159 5
E 159 160 5
E 160 161 5
E 83 162 13
E 84 163 13
E 85 164 13
E 86 165 13
E 87 166 13
E 88 167 13
E 89 168 13
E 90 169 13
E 91 170 13
E 92 171 13
E 93 172 13
E 94 173 13
E 95 174 13
E 96 175 13
E 97 176 13
E 98 177 13
E 99 178 13
E 100 179 13
E 101 180 13
E 102 181 13
E 103 182 13
E 104 183 13
E 105 184 13
E 106 185 13
E 107 186 13
E 110 189 13
E 111 190 13
E 112 191 13
E 113 192 13
E 114 193 13
E 115 194 13
E 116 195 13
E 117 196 13
E 118 197 13
E 119 198 13
E 120 199 13
E 121 200 13
E 122 201 13
E 123 202 13
E 124 203 13
E 125 204 13
E 126 205 13
E 127 206 13
E 128 207 13
E 129 208 13
E 130 209 13
E 131 210 13
E 132 211 13
E 133 212 13
E 135 213 13
E 136 214 13
E 137 215 13
E 138 216 13
E 139 217 13
E 140 218 13
E 141 219 13
E 142 220 13
E 143 221 13
E 144 222 13
E 145 224 13
E 146 225 13
E 147 226 13
E 148 228 13
E 149 229 13
E 150 230 13
E 151 231 13
E 152 232 13
E 154 233 13
E 156 234 13
E 157 235 13
E 158 237 13
E 159 238 13
E 160 239 13
E 161 240 13
E 162 163 5
E 163 164 5
E 164 165 5
E 165 166 5
E 166 167 5
E 167 168 5
E 168 169 5
E 169 170 5
E 170 171 5
E 171 172 5
E 172 173 5
E 173 174 5
E 174 175 5
E 175 176 5
E 176 177 5
E 177 178 5
E 178 179 5
E 179 180 5
E 180 181 5
E 181 182 5
E 182 183 5
E 183 184 5
E 184 185 5
E 185 186 5
E 186 187 5
E 187 188 5
E 188 189 5
E 189 190 5
E 190 191 5
E 191 192 5
E 192 193 5
E 193 194 5
E 194 195 5
E 195 196 5
E 196 197 5
E 197 198 5
E 198 199 5
E 199 200 5
E 200 201 5
E 201 202 5
E 202 203 5
E 203 204 5
E 204 205 5
E 205 206 5
E 206 207 5
E 207 208 5
E 208 209 5
E 209 210 5
E 210 211 5
E 211 212 5
E 214 215 5
E 215 216 5
E 216 217 5
E 217 218 5
E 218 219 5
E 220 221 5
E 221 222 5
E 222 223 5
E 223 224 5
E 224 225 5
E 226 227 5
E 227 228 5
E 228 229 5
E 229 230 5
E 231 232 5
E 235 236 5
E 236 237 5
E 237 238 5
E 238 239 5
E 239 240 5
E 162 241 13
E 163 242 13
E 164 243 13
E 165 244 13
E 166 245 13
E 167 246 13
E 168 247 13
E 170 249 13
E 172 251 13
E 173 252 13
E 174 253 13
E 175 254 13
E 176 255 13
E 177 256 13
E 178 257 13
E 179 258 13
E 180 259 13
E 181 260 13
E 182 261 13
E 183 262 13
E 184 263 13
E 187 266 13
E 188 267 13
E 190 268 13
E 192 270 13
E 193 271 13
E 194 272 13
E 195 273 13
E 196 274 13
E 197 275 13
E 198 276 13
E 199 277 13
E 200 278 13
E 201 279 13
E 202 280 13
E 203 281 13
E 204 282 13
E 205 283 13
E 206 284 13
E 207 285 13
E 208 286 13
E 209 287 13
E 210 288 13
E 211 289 13
E 212 290 13
E 213 291 13
E 214 293 13
E 215 294 13
E 216 295 13
E 217 296 13
E 218 297 13
E 219 298 13
E 220 300 13
E 222 301 13
E 223 302 13
E 224 303 13
E 225 304 13
E 226 306 13
E 227 307 13
E 228 308 13
E 229 309 13
E 230 310 13
E 231 312 13
E 232 313 13
E 233 314 13
E 234 315 13
E 235 317 13
E 236 318 13
E 237 319 13
E 238 320 13
E 239 321 13
E 240 322 13
E 241 242 5
E 242 243 5
E 243 244 5
E 244 245 5
E 245 246 5
E 246 247 5
E 247 248 5
E 248 249 5
E 249 250 5
E 250 251 5
E 251 252 5
E 252 253 5
E 253 254 5
E 254 255 5
E 255 256 5
E 256 257 5
E 257 258 5
E 258 259 5
E 259 260 5
E 260 261 5
E 261 262 5
E 262 263 5
E 263 264 5
E 264 265 5
E 265 266 5
E 266 267 5
E 268 269 5
E 269 270 5
E 270 271 5
E 271 272 5
E 272 273 5
E 273 274 5
E 274 275 5
E 275 276 5
E 276 277 5
E 277 278 5
E 278 279 5
E 279 280 5
E 280 281 5
E 281 282 5
E 282 283 5
E 283 284 5
E 284 285 5
E 285 286 5
E 286 287 5
E 287 288 5
E 288 289 5
E 289 290 5
E 291 292 5
E 292 293 5
E 293 294 5
E 294 295 5
E 295 296 5
E 296 297 5
E 297 298 5
E 298 299 5
E 299 300 5
E 301 302 5
E 302 303 5
E 303 304 5
E 304 305 5
E 305 306 5
E 306 307 5
E 307 308 5
E 308 309 5
E 309 310 5
E 310 311 5
E 311 312 5
E 312 313 5
E 315 316 5
E 316 317 5
E 317 318 5
E 318 319 5
E 319 320 5
E 320 321 5
E 321 322 5
E 241 323 13
E 243 324 13
E 245 326 13
E 247 327 13
E 248 328 13
E 249 329 13
E 250 330 13
E 251 331 13
E 252 332 13
E 254 333 13
E 255 334 13
E 256 335 13
E 257 336 13
E 258 337 13
E 259 338 13
E 260 339 13
E 263 342 13
E 266 345 13
E 267 346 13
E 268 347 13
E 269 348 13
E 270 349 13
E 271 350 13
E 272 351 13
E 273 352 13
E 274 353 13
E 275 354 13
E 276 355 13
E 277 356 13
E 278 357 13
E 279 358 13
E 280 359 13
E 281 360 13
E 282 361 13
E 283 362 13
E 284 363 13
E 285 364 13
E 286 365 13
E 287 366 13
E 288 367 13
E 289 368 13
E 290 369 13
E 291 371 13
E 292 372 13
E 293 373 13
E 294 374 13
E 295 375 13
E 296 376 13
E 298 377 13
E 299 378 13
E 300 379 13
E 301 380 13
E 302 381 13
E 304 383 13
E 305 384 13
E 306 385 13
E 310 386 13
E 311 387 13
E 312 388 13
E 313 389 13
E 314 391 13
E 315 393 13
E 316 394 13
E 317 395 13
E 320 398 13
E 321 399 13
E 324 325 5
E 325 326 5
E 327 328 5
E 328 329 5
E 329 330 5
E 330 331 5
E 331 332 5
E 333 334 5
E 334 335 5
E 335 336 5
E 336 337 5
E 337 338 5
E 338 339 5
E 339 340 5
E 340 341 5
E 341 342 5
E 342 343 5
E 343 344 5
E 344 345 5
E 345 346 5
E 347 348 5
E 348 349 5
E 349 350 5
E 350 351 5
E 351 352 5
E 352 353 5
E 353 354 5
E 354 355 5
E 355 356 5
E 356 357 5
E 357 358 5
E 358 359 5
E 359 360 5
E 360 361 5
E 361 362 5
E 362 363 5
E 363 364 5
E 364 365 5
E 365 366 5
E 366 367 5
E 367 368 5
E 368 369 5
E 369 370 5
E 370 371 5
E 371 372 5
E 372 373 5
E 373 374 5
E 374 375 5
E 375 376 5
E 377 378 5
E 378 379 5
E 380 381 5
E 381 382 5
E 382 383 5
E 383 384 5
E 384 385 5
E 386 387 5
E 387 388 5
E 388 389 5
E 389 390 5
E 390 391 5
E 391 392 5
E 392 393 5
E 393 394 5
E 394 395 5
E 395 396 5
E 396 397 5
E 397 398 5
E 398 399 5
E 399 400 5
E 323 401 13
E 324 402 13
E 325 403 13
E 326 404 13
E 327 405 13
E 328 406 13
E 329 407 13
E 330 408 13
E 331 409 13
E 332 410 13
E 333 411 13
E 334 412 13
E 335 413 13
E 336 414 13
E 337 415 13
E 338 416 13
E 339 417 13
E 340 418 13
E 341 419 13
E 342 420 13
E 345 423 13
E 346 424 13
E 347 426 13
E 348 427 13
E 349 428 13
E 350 429 13
E 351 430 13
E 352 431 13
E 353 432 13
E 354 433 13
E 355 434 13
E 356 435 13
E 357 436 13
E 358 437 13
E 359 438 13
E 360 439 13
E 361 440 13
E 362 441 13
E 363 442 13
E 364 443 13
E 365 444 13
E 368 447 13
E 369 448 13
E 370 449 13
E 371 450 13
E 372 451 13
E 375 454 13
E 376 455 13
E 377 456 13
E 379 457 13
E 380 459 13
E 381 460 13
E 382 461 13
E 383 462 13
E 384 463 13
E 385 464 13
E 386 468 13
E 389 471 13
E 390 472 13
E 391 473 13
E 392 474 13
E 393 475 13
E 397 476 13
E 399 478 13
E 402 403 5
E 403 404 5
E 405 406 5
E 406 407 5
E 407 408 5
E 408 409 5
E 409 410 5
E 411 412 5
E 412 413 5
E 413 414 5
E 414 415 5
E 415 416 5
E 416 417 5
E 417 418 5
E 418 419 5
E 419 420 5
E 420 421 5
E 421 422 5
E 422 423 5
E 423 424 5
E 424 425 5
E 425 426 5
E 426 427 5
E 427 428 5
E 428 429 5
E 429 430 5
E 430 431 5
E 431 432 5
E 432 433 5
E 433 434 5
E 434 435 5
E 435 436 5
E 436 437 5
E 437 438 5
E 438 439 5
E 439 440 5
E 440 441 5
E 441 442 5
E 442 443 5
E 443 444 5
E 444 445 5
E 445 446 5
E 446 447 5
E 447 448 5
E 448 449 5
E 449 450 5
E 450 451 5
E 451 452 5
E 452 453 5
E 453 454 5
E 454 455 5
E 457 458 5
E 458 459 5
E 459 460 5
E 460 461 5
E 461 462 5
E 462 463 5
E 463 464 5
E 464 465 5
E 465 466 5
E 466 467 5
E 467 468 5
E 468 469 5
E 469 470 5
E 470 471 5
E 471 472 5
E 472 473 5
E 473 474 5
E 474 475 5
E 476 477 5
E 477 478 5
E 478 479 5
E 401 480 13
E 402 482 13
E 403 483 13
E 404 484 13
E 405 486 13
E 406 487 13
E 407 488 13
E 408 489 13
E 410 491 13
E 411 493 13
E 412 494 13
E 413 495 13
E 414 496 13
E 415 497 13
E 416 498 13
E 417 499 13
E 418 500 13
E 419 501 13
E 420 502 13
E 421 503 13
E 422 504 13
E 423 505 13
E 424 506 13
E 425 507 13
E 426 508 13
E 427 509 13
E 428 510 13
E 429 511 13
E 430 512 13
E 431 513 13
E 432 514 13
E 433 515 13
E 434 516 13
E 435 517 13
E 436 518 13
E 437 519 13
E 438 520 13
E 439 521 13
E 440 522 13
E 441 523 13
E 442 524 13
E 443 525 13
E 444 526 13
E 445 527 13
E 448 530 13
E 449 531 13
E 452 534 13
E 453 535 13
E 454 536 13
E 455 537 13
E 456 539 13
E 457 540 13
E 459 541 13
E 461 542 13
E 462 543 13
E 463 544 13
E 464 545 13
E 465 546 13
E 466 547 13
E 467 548 13
E 468 549 13
E 469 550 13
E 470 551 13
E 471 552 13
E 472 553 13
E 473 554 13
E 474 555 13
E 475 556 13
E 476 560 13
E 478 562 13
E 479 563 13
E 480 481 5
E 481 482 5
E 482 483 5
E 483 484 5
E 484 485 5
E 485 486 5
E 486 487 5
E 487 488 5
E 488 489 5
E 489 490 5
E 490 491 5
E 491 492 5
E 492 493 5
E 493 494 5
E 494 495 5
E 495 496 5
E 496 497 5
E 497 498 5
E 498 499 5
E 499 500 5
E 500 501 5
E 501 502 5
E 502 503 5
E 503 504 5
E 504 505 5
E 505 506 5
E 506 507 5
E 507 508 5
E 508 509 5
E 509 510 5
E 510 511 5
E 511 512 5
E 512 513 5
E 513 514 5
E 514 515 5
E 515 516 5
E 516 517 5
E 517 518 5
E 518 519 5
E 519 520 5
E 520 521 5
E 521 522 5
E 522 523 5
E 523 524 5
E 524 525 5
E 525 526 5
E 526 527 5
E 527 528 5
E 528 529 5
E 529 530 5
E 530 531 5
E 531 532 5
E 532 533 5
E 533 534 5
E 534 535 5
E 535 536 5
E 536 537 5
E 537 538 5
E 538 539 5
E 542 543 5
E 543 544 5
E 544 545 5
E 545 546 5
E 546 547 5
E 547 548 5
E 548 549 5
E 549 550 5
E 550 551 5
E 551 552 5
E 552 553 5
E 553 554 5
E 554 555 5
E 555 556 5
E 556 557 5
E 557 558 5
E 558 559 5
E 559 560 5
E 560 561 5
E 561 562 5
E 562 563 5
E 480 564 13
E 481 565 13
E 482 566 13
E 483 567 13
E 484 568 13
E 485 569 13
E 486 570 13
E 487 571 13
E 488 572 13
E 489 573 13
E 490 574 13
E 491 575 13
E 492 576 13
E 493 577 13
E 494 578 13
E 495 579 13
E 496 580 13
E 497 581 13
E 498 582 13
E 499 583 13
E 500 584 13
E 501 585 13
E 502 586 13
E 503 587 13
E 504 588 13
E 505 589 13
E 506 590 13
E 507 591 13
E 508 592 13
E 509 593 13
E 510 594 13
E 511 595 13
E 514 598 13
E 515 599 13
E 518 602 13
E 519 603 13
E 520 604 13
E 521 605 13
E 522 606 13
E 525 609 13
E 526 610 13
E 528 611 13
E 530 612 13
E 531 613 13
E 532 614 13
E 533 615 13
E 536 618 13
E 537 619 13
E 538 620 13
E 539 621 13
E 540 623 13
E 541 624 13
E 542 625 13
E 543 626 13
E 544 627 13
E 545 628 13
E 546 629 13
E 547 630 13
E 549 631 13
E 551 633 13
E 552 634 13
E 553 635 13
E 556 638 13
E 557 639 13
E 558 640 13
E 559 641 13
E 560 642 13
E 561 643 13
E 562 644 13
E 564 565 5
E 565 566 5
E 566 567 5
E 567 568 5
E 568 569 5
E 569 570 5
E 570 571 5
E 571 572 5
E 572 573 5
E 573 574 5
E 574 575 5
E 575 576 5
E 576 577 5
E 577 578 5
E 578 579 5
E 579 580 5
E 580 581 5
E 581 582 5
E 582 583 5
E 583 584 5
E 584 585 5
E 585 586 5
E 586 587 5
E 587 588 5
E 588 589 5
E 589 590 5
E 590 591 5
E 591 592 5
E 592 593 5
E 593 594 5
E 594 595 5
E 595 596 5
E 596 597 5
E 597 598 5
E 598 599 5
E 599 600 5
E 600 601 5
E 601 602 5
E 602 603 5
E 603 604 5
E 604 605 5
E 605 606 5
E 606 607 5
E 607 608 5
E 608 609 5
E 609 610 5
E 612 613 5
E 613 614 5
E 614 615 5
E 615 616 5
E 616 617 5
E 617 618 5
E 618 619 5
E 619 620 5
E 620 621 5
E 621 622 5
E 622 623 5
E 625 626 5
E 626 627 5
E 627 628 5
E 628 629 5
E 629 630 5
E 631 632 5
E 632 633 5
E 633 634 5
E 634 635 5
E 635 636 5
E 636 637 5
E 637 638 5
E 638 639 5
E 639 640 5
E 640 641 5
E 641 642 5
E 642 643 5
E 643 644 5
E 644 645 5
E 564 646 13
E 565 647 13
E 566 648 13
E 567 649 13
E 568 650 13
E 569 651 13
E 570 652 13
E 571 653 13
E 572 654 13
E 573 655 13
E 574 656 13
E 575 657 13
E 576 658 13
E 577 659 13
E 578 660 13
E 579 661 13
E 580 662 13
E 581 663 13
E 582 664 13
E 583 665 13
E 584 666 13
E 585 667 13
E 586 668 13
E 587 669 13
E 588 670 13
E 589 671 13
E 590 672 13
E 591 673 13
E 592 674 13
E 593 675 13
E 594 676 13
E 597 679 13
E 598 680 13
E 599 681 13
E 600 682 13
E 601 683 13
E 604 686 13
E 605 687 13
E 606 688 13
E 609 691 13
E 610 692 13
E 611 693 13
E 612 694 13
E 613 695 13
E 616 698 13
E 617 699 13
E 620 702 13
E 621 703 13
E 622 704 13
E 623 705 13
E 624 707 13
E 625 709 13
E 626 710 13
E 627 711 13
E 628 712 13
E 629 713 13
E 630 714 13
E 631 715 13
E 632 716 13
E 633 717 13
E 634 718 13
E 636 719 13
E 638 721 13
E 640 723 13
E 641 724 13
E 642 725 13
E 643 726 13
E 644 727 13
E 646 647 5
E 647 648 5
E 648 649 5
E 649 650 5
E 650 651 5
E 651 652 5
E 652 653 5
E 653 654 5
E 654 655 5
E 655 656 5
E 656 657 5
E 657 658 5
E 658 659 5
E 659 660 5
E 660 661 5
E 661 662 5
E 662 663 5
E 663 664 5
E 664 665 5
E 665 666 5
E 666 667 5
E 667 668 5
E 668 669 5
E 669 670 5
E 670 671 5
E 671 672 5
E 672 673 5
E 673 674 5
E 674 675 5
E 675 676 5
E 676 677 5
E 677 678 5
E 678 679 5
E 679 680 5
E 680 681 5
E 681 682 5
E 682 683 5
E 683 684 5
E 684 685 5
E 685 686 5
E 686 687 5
E 687 688 5
E 688 689 5
E 689 690 5
E 690 691 5
E 691 692 5
E 694 695 5
E 695 696 5
E 696 697 5
E 697 698 5
E 698 699 5
E 699 700 5
E 700 701 5
E 701 702 5
E 702 703 5
E 703 704 5
E 704 705 5
E 705 706 5
E 706 707 5
E 707 708 5
E 708 709 5
E 709 710 5
E 710 711 5
E 711 712 5
E 712 713 5
E 713 714 5
E 715 716 5
E 716 717 5
E 717 718 5
E 719 720 5
E 720 721 5
E 721 722 5
E 722 723 5
E 723 724 5
E 724 725 5
E 725 726 5
E 726 727 5
E 727 728 5
E 646 729 13
E 647 730 13
E 648 731 13
E 649 732 13
E 650 733 13
E 651 734 13
E 652 735 13
E 653 736 13
E 654 737 13
E 655 738 13
E 656 739 13
E 657 740 13
E 658 741 13
E 659 742 13
E 660 743 13
E 661 744 13
E 662 745 13
E 663 746 13
E 664 747 13
E 665 748 13
E 666 749 13
E 667 750 13
E 668 751 13
E 669 752 13
E 670 753 13
E 673 756 13
E 674 757 13
E 675 758 13
E 676 759 13
E 677 760 13
E 678 761 13
E 681 764 13
E 682 765 13
E 683 766 13
E 684 767 13
E 685 768 13
E 686 769 13
E 689 772 13
E 690 773 13
E 691 774 13
E 692 775 13
E 693 777 13
E 694 779 13
E 695 780 13
E 696 781 13
E 697 782 13
E 700 785 13
E 701 786 13
E 704 789 13
E 705 790 13
E 707 791 13
E 708 792 13
E 709 793 13
E 712 796 13
E 713 797 13
E 714 798 13
E 715 800 13
E 717 802 13
E 718 803 13
E 719 804 13
E 720 805 13
E 721 806 13
E 722 807 13
E 723 808 13
E 725 810 13
E 726 811 13
E 727 812 13
E 728 813 13
E 729 730 5
E 730 731 5
E 731 732 5
E 732 733 5
E 733 734 5
E 734 735 5
E 735 736 5
E 736 737 5
E 737 738 5
E 738 739 5
E 739 740 5
E 740 741 5
E 741 742 5
E 742 743 5
E 743 744 5
E 744 745 5
E 745 746 5
E 746 747 5
E 747 748 5
E 748 749 5
E 749 750 5
E 750 751 5
E 751 752 5
E 752 753 5
E 753 754 5
E 754 755 5
E 755 756 5
E 756 757 5
E 757 758 5
E 758 759 5
E 759 760 5
E 760 761 5
E 761 762 5
E 762 763 5
E 763 764 5
E 764 765 5
E 765 766 5
E 766 767 5
E 767 768 5
E 768 769 5
E 769 770 5
E 770 771 5
E 771 772 5
E 772 773 5
E 773 774 5
E 774 775 5
E 775 776 5
E 776 777 5
E 777 778 5
E 778 779 5
E 779 780 5
E 780 781 5
E 781 782 5
E 782 783 5
E 783 784 5
E 784 785 5
E 785 786 5
E 786 787 5
E 787 788 5
E 788 789 5
E 789 790 5
E 791 792 5
E 792 793 5
E 793 794 5
E 794 795 5
E 795 796 5
E 796 797 5
E 797 798 5
E 798 799 5
E 799 800 5
E 800 801 5
E 801 802 5
E 802 803 5
E 804 805 5
E 805 806 5
E 806 807 5
E 807 808 5
E 808 809 5
E 809 810 5
E 810 811 5
E 811 812 5
E 812 813 5
E 729 814 13
E 730 815 13
E 731 816 13
E 732 817 13
E 733 818 13
E 734 819 13
E 735 820 13
E 736 821 13
E 737 822 13
E 738 823 13
E 739 824 13
E 740 825 13
E 741 826 13
E 742 827 13
E 743 828 13
E 744 829 13
E 745 830 13
E 746 831 13
E 747 832 13
E 748 833 13
E 749 834 13
E 750 835 13
E 753 838 13
E 754 839 13
E 755 840 13
E 758 843 13
E 759 844 13
E 762 847 13
E 763 848 13
E 764 849 13
E 767 852 13
E 768 853 13
E 769 854 13
E 770 855 13
E 771 856 13
E 772 857 13
E 773 858 13
E 774 859 13
E 775 860 13
E 776 861 13
E 777 862 13
E 778 863 13
E 779 864 13
E 780 865 13
E 783 868 13
E 784 869 13
E 786 870 13
E 787 871 13
E 788 872 13
E 789 873 13
E 790 874 13
E 791 875 13
E 793 876 13
E 794 877 13
E 795 878 13
E 796 879 13
E 798 880 13
E 799 881 13
E 800 882 13
E 801 883 13
E 802 884 13
E 803 885 13
E 804 887 13
E 805 888 13
E 806 889 13
E 807 890 13
E 808 891 13
E 809 892 13
E 810 893 13
E 811 894 13
E 812 895 13
E 813 896 13
E 814 815 5
E 815 816 5
E 816 817 5
E 817 818 5
E 818 819 5
E 819 820 5
E 820 821 5
E 821 822 5
E 822 823 5
E 823 824 5
E 824 825 5
E 825 826 5
E 826 827 5
E 827 828 5
E 828 829 5
E 829 830 5
E 830 831 5
E 831 832 5
E 832 833 5
E 833 834 5
E 834 835 5
E 835 836 5
E 836 837 5
E 837 838 5
E 838 839 5
E 839 840 5
E 840 841 5
E 841 842 5
E 842 843 5
E 843 844 5
E 844 845 5
E 845 846 5
E 846 847 5
E 847 848 5
E 848 849 5
E 849 850 5
E 850 851 5
E 851 852 5
E 852 853 5
E 853 854 5
E 854 855 5
E 855 856 5
E 856 857 5
E 857 858 5
E 858 859 5
E 859 860 5
E 860 861 5
E 861 862 5
E 862 863 5
E 863 864 5
E 864 865 5
E 865 866 5
E 866 867 5
E 867 868 5
E 868 869 5
E 870 871 5
E 871 872 5
E 872 873 5
E 873 874 5
E 876 877 5
E 877 878 5
E 878 879 5
E 880 881 5
E 881 882 5
E 882 883 5
E 883 884 5
E 884 885 5
E 885 886 5
E 886 887 5
E 887 888 5
E 888 889 5
E 889 890 5
E 890 891 5
E 891 892 5
E 892 893 5
E 893 894 5
E 894 895 5
E 895 896 5
E 814 897 13
E 815 898 13
E 816 899 13
E 817 900 13
E 818 901 13
E 819 902 13
E 820 903 13
E 821 904 13
E 822 905 13
E 823 906 13
E 824 907 13
E 825 908 13
E 826 909 13
E 827 910 13
E 828 911 13
E 829 912 13
E 832 915 13
E 833 916 13
E 834 917 13
E 835 918 13
E 836 919 13
E 837 920 13
E 838 921 13
E 839 922 13
E 840 923 13
E 841 924 13
E 842 925 13
E 843 926 13
E 844 927 13
E 847 930 13
E 848 931 13
E 849 932 13
E 850 933 13
E 851 934 13
E 852 935 13
E 853 936 13
E 854 937 13
E 855 938 13
E 856 939 13
E 857 940 13
E 858 941 13
E 859 942 13
E 860 943 13
E 861 944 13
E 863 945 13
E 864 946 13
E 865 947 13
E 868 950 13
E 869 951 13
E 870 952 13
E 871 953 13
E 872 954 13
E 874 955 13
E 875 957 13
E 876 958 13
E 877 959 13
E 878 960 13
E 879 961 13
E 880 962 13
E 881 963 13
E 882 964 13
E 884 966 13
E 885 967 13
E 886 968 13
E 887 969 13
E 889 971 13
E 890 972 13
E 891 973 13
E 895 974 13
E 897 898 5
E 898 899 5
E 899 900 5
E 900 901 5
E 901 902 5
E 902 903 5
E 903 904 5
E 904 905 5
E 905 906 5
E 906 907 5
E 907 908 5
E 908 909 5
E 909 910 5
E 910 911 5
E 911 912 5
E 912 913 5
E 913 914 5
E 914 915 5
E 915 916 5
E 916 917 5
E 917 918 5
E 918 919 5
E 919 920 5
E 920 921 5
E 921 922 5
E 922 923 5
E 923 924 5
E 924 925 5
E 925 926 5
E 926 927 5
E 927 928 5
E 928 929 5
E 929 930 5
E 930 931 5
E 931 932 5
E 932 933 5
E 933 934 5
E 934 935 5
E 935 936 5
E 936 937 5
E 937 938 5
E 938 939 5
E 939 940 5
E 940 941 5
E 941 942 5
E 942 943 5
E 943 944 5
E 945 946 5
E 946 947 5
E 947 948 5
E 948 949 5
E 949 950 5
E 950 951 5
E 952 953 5
E 953 954 5
E 955 956 5
E 956 957 5
E 958 959 5
E 959 960 5
E 960 961 5
E 962 963 5
E 963 964 5
E 964 965 5
E 965 966 5
E 966 967 5
E 967 968 5
E 968 969 5
E 969 970 5
E 970 971 5
E 971 972 5
E 972 973 5
E 974 975 5
E 897 976 13
E 898 977 13
E 899 978 13
E 900 979 13
E 901 980 13
E 902 981 13
E 903 982 13
E 904 983 13
E 905 984 13
E 906 985 13
E 907 986 13
E 910 989 13
E 911 990 13
E 912 991 13
E 913 992 13
E 914 993 13
E 915 994 13
E 916 995 13
E 917 996 13
E 918 997 13
E 921 1000 13
E 922 1001 13
E 923 1002 13
E 926 1005 13
E 927 1006 13
E 928 1007 13
E 931 1010 13
E 932 1011 13
E 933 1012 13
E 934 1013 13
E 935 1014 13
E 936 1015 13
E 937 1016 13
E 938 1017 13
E 939 1018 13
E 940 1019 13
E 941 1020 13
E 942 1021 13
E 943 1022 13
E 944 1023 13
E 945 1024 13
E 946 1025 13
E 947 1026 13
E 950 1029 13
E 951 1030 13
E 952 1032 13
E 953 1033 13
E 954 1034 13
E 955 1035 13
E 956 1036 13
E 957 1037 13
E 958 1039 13
E 959 1040 13
E 960 1041 13
E 961 1042 13
E 962 1044 13
E 963 1045 13
E 964 1046 13
E 965 1047 13
E 966 1048 13
E 967 1049 13
E 969 1050 13
E 970 1051 13
E 971 1052 13
E 973 1054 13
E 974 1058 13
E 975 1059 13
E 976 977 5
E 977 978 5
E 978 979 5
E 979 980 5
E 980 981 5
E 981 982 5
E 982 983 5
E 983 984 5
E 984 985 5
E 985 986 5
E 986 987 5
E 987 988 5
E 988 989 5
E 989 990 5
E 990 991 5
E 991 992 5
E 992 993 5
E 993 994 5
E 994 995 5
E 995 996 5
E 996 997 5
E 997 998 5
E 998 999 5
E 999 1000 5
E 1000 1001 5
E 1001 1002 5
E 1002 1003 5
E 1003 1004 5
E 1004 1005 5
E 1005 1006 5
E 1006 1007 5
E 1007 1008 5
E 1008 1009 5
E 1009 1010 5
E 1010 1011 5
E 1011 1012 5
E 1012 1013 5
E 1013 1014 5
E 1014 1015 5
E 1015 1016 5
E 1016 1017 5
E 1017 1018 5
E 1018 1019 5
E 1019 1020 5
E 1020 1021 5
E 1021 1022 5
E 1022 1023 5
E 1024 1025 5
E 1025 1026 5
E 1026 1027 5
E 1027 1028 5
E 1028 1029 5
E 1029 1030 5
E 1030 1031 5
E 1031 1032 5
E 1032 1033 5
E 1033 1034 5
E 1035 1036 5
E 1036 1037 5
E 1037 1038 5
E 1038 1039 5
E 1039 1040 5
E 1040 1041 5
E 1041 1042 5
E 1042 1043 5
E 1043 1044 5
E 1044 1045 5
E 1045 1046 5
E 1046 1047 5
E 1047 1048 5
E 1048 1049 5
E 1050 1051 5
E 1051 1052 5
E 1052 1053 5
E 1053 1054 5
E 1054 1055 5
E 1055 1056 5
E 1056 1057 5
E 1057 1058 5
E 1058 1059 5
E 976 1060 13
E 977 1061 13
E 978 1062 13
E 979 1063 13
E 980 1064 13
E 981 1065 13
E 982 1066 13
E 983 1067 13
E 984 1068 13
E 985 1069 13
E 986 1070 13
E 987 1071 13
E 988 1072 13
E 989 1073 13
E 990 1074 13
E 991 1075 13
E 992 1076 13
E 993 1077 13
E 994 1078 13
E 995 1079 13
E 996 1080 13
E 997 1081 13
E 998 1082 13
E 999 1083 13
E 1000 1084 13
E 1003 1087 13
E 1004 1088 13
E 1005 1089 13
E 1006 1090 13
E 1009 1093 13
E 1010 1094 13
E 1011 1095 13
E 1012 1096 13
E 1013 1097 13
E 1014 1098 13
E 1015 1099 13
E 1016 1100 13
E 1017 1101 13
E 1018 1102 13
E 1019 1103 13
E 1020 1104 13
E 1021 1105 13
E 1022 1106 13
E 1023 1107 13
E 1024 1109 13
E 1027 1112 13
E 1030 1115 13
E 1031 1116 13
E 1032 1117 13
E 1033 1118 13
E 1034 1119 13
E 1035 1121 13
E 1037 1122 13
E 1038 1123 13
E 1039 1124 13
E 1040 1125 13
E 1041 1126 13
E 1042 1127 13
E 1043 1128 13
E 1044 1129 13
E 1045 1130 13
E 1046 1131 13
E 1049 1134 13
E 1050 1135 13
E 1051 1136 13
E 1052 1137 13
E 1053 1138 13
E 1054 1139 13
E 1055 1140 13
E 1056 1141 13
E 1057 1142 13
E 1058 1143 13
E 1059 1144 13
E 1060 1061 5
E 1061 1062 5
E 1062 1063 5
E 1063 1064 5
E 1064 1065 5
E 1065 1066 5
E 1066 1067 5
E 1067 1068 5
E 1068 1069 5
E 1069 1070 5
E 1070 1071 5
E 1071 1072 5
E 1072 1073 5
E 1073 1074 5
E 1074 1075 5
E 1075 1076 5
E 1076 1077 5
E 1077 1078 5
E 1078 1079 5
E 1079 1080 5
E 1080 1081 5
E 1081 1082 5
E 1082 1083 5
E 1083 1084 5
E 1084 1085 5
E 1085 1086 5
E 1086 1087 5
E 1087 1088 5
E 1088 1089 5
E 1089 1090 5
E 1090 1091 5
E 1091 1092 5
E 1092 1093 5
E 1093 1094 5
E 1094 1095 5
E 1095 1096 5
E 1096 1097 5
E 1097 1098 5
E 1098 1099 5
E 1099 1100 5
E 1100 1101 5
E 1101 1102 5
E 1102 1103 5
E 1103 1104 5
E 1104 1105 5
E 1105 1106 5
E 1106 1107 5
E 1107 1108 5
E 1108 1109 5
E 1109 1110 5
E 1110 1111 5
E 1111 1112 5
E 1112 1113 5
E 1113 1114 5
E 1114 1115 5
E 1115 1116 5
E 1116 1117 5
E 1117 1118 5
E 1118 1119 5
E 1119 1120 5
E 1120 1121 5
E 1122 1123 5
E 1123 1124 5
E 1124 1125 5
E 1125 1126 5
E 1126 1127 5
E 1127 1128 5
E 1128 1129 5
E 1129 1130 5
E 1130 1131 5
E 1131 1132 5
E 1132 1133 5
E 1133 1134 5
E 1135 1136 5
E 1136 1137 5
E 1137 1138 5
E 1138 1139 5
E 1139 1140 5
E 1140 1141 5
E 1141 1142 5
E 1142 1143 5
E 1143 1144 5
E 1060 1145 13
E 1061 1146 13
E 1062 1147 13
E 1063 1148 13
E 1064 1149 13
E 1065 1150 13
E 1066 1151 13
E 1067 1152 13
E 1068 1153 13
E 1069 1154 13
E 1070 1155 13
E 1071 1156 13
E 1072 1157 13
E 1073 1158 13
E 1074 1159 13
E 1075 1160 13
E 1076 1161 13
E 1077 1162 13
E 1078 1163 13
E 1079 1164 13
E 1080 1165 13
E 1083 1168 13
E 1084 1169 13
E 1087 1172 13
E 1088 1173 13
E 1089 1174 13
E 1092 1177 13
E 1093 1178 13
E 1094 1179 13
E 1095 1180 13
E 1096 1181 13
E 1097 1182 13
E 1098 1183 13
E 1099 1184 13
E 1100 1185 13
E 1101 1186 13
E 1103 1187 13
E 1105 1188 13
E 1107 1189 13
E 1108 1190 13
E 1109 1191 13
E 1110 1192 13
E 1113 1195 13
E 1114 1196 13
E 1115 1197 13
E 1118 1200 13
E 1119 1201 13
E 1120 1202 13
E 1121 1203 13
E 1122 1204 13
E 1125 1207 13
E 1126 1208 13
E 1127 1209 13
E 1131 1210 13
E 1133 1211 13
E 1134 1212 13
E 1135 1214 13
E 1136 1215 13
E 1137 1216 13
E 1140 1219 13
E 1141 1220 13
E 1145 1146 5
E 1146 1147 5
E 1147 1148 5
E 1148 1149 5
E 1149 1150 5
E 1150 1151 5
E 1151 1152 5
E 1152 1153 5
E 1153 1154 5
E 1154 1155 5
E 1155 1156 5
E 1156 1157 5
E 1157 1158 5
E 1158 1159 5
E 1159 1160 5
E 1160 1161 5
E 1161 1162 5
E 1162 1163 5
E 1163 1164 5
E 1164 1165 5
E 1165 1166 5
E 1166 1167 5
E 1167 1168 5
E 1168 1169 5
E 1169 1170 5
E 1170 1171 5
E 1171 1172 5
E 1172 1173 5
E 1173 1174 5
E 1174 1175 5
E 1175 1176 5
E 1176 1177 5
E 1177 1178 5
E 1178 1179 5
E 1179 1180 5
E 1180 1181 5
E 1181 1182 5
E 1182 1183 5
E 1183 1184 5
E 1184 1185 5
E 1185 1186 5
E 1189 1190 5
E 1190 1191 5
E 1191 1192 5
E 1192 1193 5
E 1193 1194 5
E 1194 1195 5
E 1195 1196 5
E 1196 1197 5
E 1197 1198 5
E 1198 1199 5
E 1199 1200 5
E 1200 1201 5
E 1201 1202 5
E 1202 1203 5
E 1204 1205 5
E 1205 1206 5
E 1206 1207 5
E 1207 1208 5
E 1208 1209 5
E 1211 1212 5
E 1212 1213 5
E 1213 1214 5
E 1214 1215 5
E 1215 1216 5
E 1216 1217 5
E 1217 1218 5
E 1218 1219 5
E 1219 1220 5
E 1145 1221 13
E 1146 1222 13
E 1147 1223 13
E 1148 1224 13
E 1149 1225 13
E 1150 1226 13
E 1151 1227 13
E 1152 1228 13
E 1153 1229 13
E 1154 1230 13
E 1155 1231 13
E 1156 1232 13
E 1157 1233 13
E 1158 1234 13
E 1159 1235 13
E 1160 1236 13
E 1161 1237 13
E 1162 1238 13
E 1163 1239 13
E 1164 1240 13
E 1165 1241 13
E 1166 1242 13
E 1167 1243 13
E 1168 1244 13
E 1169 1245 13
E 1172 1248 13
E 1173 1249 13
E 1174 1250 13
E 1175 1251 13
E 1176 1252 13
E 1177 1253 13
E 1178 1254 13
E 1179 1255 13
E 1180 1256 13
E 1181 1257 13
E 1184 1260 13
E 1185 1261 13
E 1186 1262 13
E 1187 1263 13
E 1188 1264 13
E 1189 1265 13
E 1190 1266 13
E 1192 1267 13
E 1194 1268 13
E 1195 1269 13
E 1196 1270 13
E 1197 1271 13
E 1198 1272 13
E 1199 1273 13
E 1200 1274 13
E 1201 1275 13
E 1202 1276 13
E 1203 1277 13
E 1204 1279 13
E 1205 1280 13
E 1206 1281 13
E 1207 1282 13
E 1209 1283 13
E 1210 1287 13
E 1211 1288 13
E 1212 1289 13
E 1213 1290 13
E 1214 1291 13
E 1218 1292 13
E 1219 1293 13
E 1220 1294 13
E 1221 1222 5
E 1222 1223 5
E 1223 1224 5
E 1224 1225 5
E 1225 1226 5
E 1226 1227 5
E 1227 1228 5
E 1228 1229 5
E 1229 1230 5
E 1230 1231 5
E 1231 1232 5
E 1232 1233 5
E 1233 1234 5
E 1234 1235 5
E 1235 1236 5
E 1236 1237 5
E 1237 1238 5
E 1238 1239 5
E 1239 1240 5
E 1240 1241 5
E 1241 1242 5
E 1242 1243 5
E 1243 1244 5
E 1244 1245 5
E 1245 1246 5
E 1246 1247 5
E 1247 1248 5
E 1248 1249 5
E 1249 1250 5
E 1250 1251 5
E 1251 1252 5
E 1252 1253 5
E 1253 1254 5
E 1254 1255 5
E 1255 1256 5
E 1256 1257 5
E 1257 1258 5
E 1258 1259 5
E 1259 1260 5
E 1260 1261 5
E 1261 1262 5
E 1265 1266 5
E 1268 1269 5
E 1269 1270 5
E 1270 1271 5
E 1271 1272 5
E 1272 1273 5
E 1273 1274 5
E 1274 1275 5
E 1275 1276 5
E 1276 1277 5
E 1277 1278 5
E 1278 1279 5
E 1279 1280 5
E 1280 1281 5
E 1281 1282 5
E 1283 1284 5
E 1284 1285 5
E 1285 1286 5
E 1286 1287 5
E 1288 1289 5
E 1289 1290 5
E 1290 1291 5
E 1292 1293 5
E 1293 1294 5
E 1294 1295 5
E 1295 1296 5
E 1296 1297 5
E 1221 1298 13
E 1222 1299 13
E 1223 1300 13
E 1224 1301 13
E 1225 1302 13
E 1226 1303 13
E 1227 1304 13
E 1228 1305 13
E 1229 1306 13
E 1230 1307 13
E 1231 1308 13
E 1232 1309 13
E 1233 1310 13
E 1234 1311 13
E 1235 1312 13
E 1236 1313 13
E 1239 1316 13
E 1240 1317 13
E 1241 1318 13
E 1242 1319 13
E 1243 1320 13
E 1244 1321 13
E 1245 1322 13
E 1246 1323 13
E 1247 1324 13
E 1248 1325 13
E 1249 1326 13
E 1250 1327 13
E 1251 1328 13
E 1252 1329 13
E 1255 1332 13
E 1256 1333 13
E 1259 1336 13
E 1260 1337 13
E 1261 1338 13
E 1262 1339 13
E 1263 1341 13
E 1264 1343 13
E 1265 1345 13
E 1266 1346 13
E 1267 1347 13
E 1268 1348 13
E 1269 1349 13
E 1270 1350 13
E 1271 1351 13
E 1272 1352 13
E 1273 1353 13
E 1274 1354 13
E 1275 1355 13
E 1276 1356 13
E 1277 1357 13
E 1278 1358 13
E 1279 1359 13
E 1280 1360 13
E 1281 1361 13
E 1282 1362 13
E 1283 1363 13
E 1284 1364 13
E 1285 1365 13
E 1286 1366 13
E 1287 1367 13
E 1288 1369 13
E 1289 1370 13
E 1290 1371 13
E 1291 1372 13
E 1292 1376 13
E 1293 1377 13
E 1294 1378 13
E 1295 1379 13
E 1296 1380 13
E 1297 1381 13
E 1298 1299 5
E 1299 1300 5
E 1300 1301 5
E 1301 1302 5
E 1302 1303 5
E 1303 1304 5
E 1304 1305 5
E 1305 1306 5
E 1306 1307 5
E 1307 1308 5
E 1308 1309 5
E 1309 1310 5
E 1310 1311 5
E 1311 1312 5
E 1312 1313 5
E 1313 1314 5
E 1314 1315 5
E 1315 1316 5
E 1316 1317 5
E 1317 1318 5
E 1318 1319 5
E 1319 1320 5
E 1320 1321 5
E 1321 1322 5
E 1322 1323 5
E 1323 1324 5
E 1324 1325 5
E 1325 1326 5
E 1326 1327 5
E 1327 1328 5
E 1328 1329 5
E 1329 1330 5
E 1330 1331 5
E 1331 1332 5
E 1332 1333 5
E 1333 1334 5
E 1334 1335 5
E 1335 1336 5
E 1336 1337 5
E 1337 1338 5
E 1338 1339 5
E 1339 1340 5
E 1340 1341 5
E 1341 1342 5
E 1342 1343 5
E 1343 1344 5
E 1344 1345 5
E 1345 1346 5
E 1348 1349 5
E 1349 1350 5
E 1350 1351 5
E 1351 1352 5
E 1352 1353 5
E 1353 1354 5
E 1354 1355 5
E 1355 1356 5
E 1356 1357 5
E 1357 1358 5
E 1358 1359 5
E 1359 1360 5
E 1360 1361 5
E 1361 1362 5
E 1363 1364 5
E 1364 1365 5
E 1365 1366 5
E 1366 1367 5
E 1367 1368 5
E 1368 1369 5
E 1369 1370 5
E 1370 1371 5
E 1371 1372 5
E 1372 1373 5
E 1373 1374 5
E 1374 1375 5
E 1375 1376 5
E 1376 1377 5
E 1377 1378 5
E 1378 1379 5
E 1379 1380 5
E 1380 1381 5
E 1298 1382 13
E 1299 1383 13
E 1300 1384 13
E 1301 1385 13
E 1302 1386 13
E 1303 1387 13
E 1304 1388 13
E 1305 1389 13
E 1306 1390 13
E 1307 1391 13
E 1308 1392 13
E 1309 1393 13
E 1310 1394 13
E 1311 1395 13
E 1312 1396 13
E 1313 1397 13
E 1314 1398 13
E 1315 1399 13
E 1316 1400 13
E 1317 1401 13
E 1318 1402 13
E 1319 1403 13
E 1322 1406 13
E 1323 1407 13
E 1324 1408 13
E 1327 1411 13
E 1328 1412 13
E 1331 1415 13
E 1332 1416 13
E 1333 1417 13
E 1334 1418 13
E 1335 1419 13
E 1338 1422 13
E 1339 1423 13
E 1340 1424 13
E 1341 1425 13
E 1342 1426 13
E 1343 1427 13
E 1344 1428 13
E 1345 1429 13
E 1346 1430 13
E 1347 1432 13
E 1348 1434 13
E 1351 1437 13
E 1352 1438 13
E 1353 1439 13
E 1355 1440 13
E 1356 1441 13
E 1357 1442 13
E 1358 1443 13
E 1359 1444 13
E 1361 1445 13
E 1362 1446 13
E 1363 1448 13
E 1365 1449 13
E 1366 1450 13
E 1367 1451 13
E 1368 1452 13
E 1369 1453 13
E 1370 1454 13
E 1372 1455 13
E 1373 1456 13
E 1374 1457 13
E 1375 1458 13
E 1376 1459 13
E 1377 1460 13
E 1378 1461 13
E 1380 1462 13
E 1382 1383 5
E 1383 1384 5
E 1384 1385 5
E 1385 1386 5
E 1386 1387 5
E 1387 1388 5
E 1388 1389 5
E 1389 1390 5
E 1390 1391 5
E 1391 1392 5
E 1392 1393 5
E 1393 1394 5
E 1394 1395 5
E 1395 1396 5
E 1396 1397 5
E 1397 1398 5
E 1398 1399 5
E 1399 1400 5
E 1400 1401 5
E 1401 1402 5
E 1402 1403 5
E 1403 1404 5
E 1404 1405 5
E 1405 1406 5
E 1406 1407 5
E 1407 1408 5
E 1408 1409 5
E 1409 1410 5
E 1410 1411 5
E 1411 1412 5
E 1412 1413 5
E 1413 1414 5
E 1414 1415 5
E 1415 1416 5
E 1416 1417 5
E 1417 1418 5
E 1418 1419 5
E 1419 1420 5
E 1420 1421 5
E 1421 1422 5
E 1422 1423 5
E 1423 1424 5
E 1424 1425 5
E 1425 1426 5
E 1426 1427 5
E 1427 1428 5
E 1428 1429 5
E 1429 1430 5
E 1430 1431 5
E 1431 1432 5
E 1432 1433 5
E 1433 1434 5
E 1434 1435 5
E 1435 1436 5
E 1436 1437 5
E 1437 1438 5
E 1438 1439 5
E 1440 1441 5
E 1441 1442 5
E 1442 1443 5
E 1443 1444 5
E 1445 1446 5
E 1446 1447 5
E 1447 1448 5
E 1449 1450 5
E 1450 1451 5
E 1451 1452 5
E 1452 1453 5
E 1453 1454 5
E 1455 1456 5
E 1456 1457 5
E 1457 1458 5
E 1458 1459 5
E 1459 1460 5
E 1460 1461 5
E 1462 1463 5
E 1382 1464 13
E 1383 1465 13
E 1384 1466 13
E 1385 1467 13
E 1386 1468 13
E 1387 1469 13
E 1388 1470 13
E 1389 1471 13
E 1390 1472 13
E 1391 1473 13
E 1392 1474 13
E 1393 1475 13
E 1394 1476 13
E 1395 1477 13
E 1396 1478 13
E 1397 1479 13
E 1398 1480 13
E 1399 1481 13
E 1400 1482 13
E 1401 1483 13
E 1402 1484 13
E 1403 1485 13
E 1406 1488 13
E 1407 1489 13
E 1410 1492 13
E 1411 1493 13
E 1412 1494 13
E 1413 1495 13
E 1416 1498 13
E 1417 1499 13
E 1420 1502 13
E 1421 1503 13
E 1424 1506 13
E 1425 1507 13
E 1426 1508 13
E 1427 1509 13
E 1428 1510 13
E 1429 1511 13
E 1430 1512 13
E 1431 1513 13
E 1432 1514 13
E 1433 1515 13
E 1434 1516 13
E 1435 1517 13
E 1436 1518 13
E 1437 1519 13
E 1438 1520 13
E 1439 1521 13
E 1440 1522 13
E 1441 1523 13
E 1443 1524 13
E 1444 1525 13
E 1445 1526 13
E 1446 1527 13
E 1447 1528 13
E 1448 1529 13
E 1449 1530 13
E 1451 1531 13
E 1453 1532 13
E 1454 1533 13
E 1455 1534 13
E 1456 1535 13
E 1457 1536 13
E 1458 1537 13
E 1461 1540 13
E 1462 1541 13
E 1463 1542 13
E 1464 1465 5
E 1465 1466 5
E 1466 1467 5
E 1467 1468 5
E 1468 1469 5
E 1469 1470 5
E 1470 1471 5
E 1471 1472 5
E 1472 1473 5
E 1473 1474 5
E 1474 1475 5
E 1475 1476 5
E 1476 1477 5
E 1477 1478 5
E 1478 1479 5
E 1479 1480 5
E 1480 1481 5
E 1481 1482 5
E 1482 1483 5
E 1483 1484 5
E 1484 1485 5
E 1485 1486 5
E 1486 1487 5
E 1487 1488 5
E 1488 1489 5
E 1489 1490 5
E 1490 1491 5
E 1491 1492 5
E 1492 1493 5
E 1493 1494 5
E 1494 1495 5
E 1495 1496 5
E 1496 1497 5
E 1497 1498 5
E 1498 1499 5
E 1499 1500 5
E 1500 1501 5
E 1501 1502 5
E 1502 1503 5
E 1503 1504 5
E 1504 1505 5
E 1505 1506 5
E 1506 1507 5
E 1507 1508 5
E 1508 1509 5
E 1509 1510 5
E 1510 1511 5
E 1511 1512 5
E 1512 1513 5
E 1513 1514 5
E 1514 1515 5
E 1515 1516 5
E 1516 1517 5
E 1517 1518 5
E 1518 1519 5
E 1519 1520 5
E 1520 1521 5
E 1522 1523 5
E 1524 1525 5
E 1526 1527 5
E 1527 1528 5
E 1528 1529 5
E 1532 1533 5
E 1534 1535 5
E 1535 1536 5
E 1536 1537 5
E 1537 1538 5
E 1538 1539 5
E 1539 1540 5
E 1541 1542 5
E 1464 1543 13
E 1465 1544 13
E 1466 1545 13
E 1467 1546 13
E 1468 1547 13
E 1469 1548 13
E 1470 1549 13
E 1471 1550 13
E 1472 1551 13
E 1473 1552 13
E 1474 1553 13
E 1475 1554 13
E 1476 1555 13
E 1477 1556 13
E 1478 1557 13
E 1479 1558 13
E 1480 1559 13
E 1481 1560 13
E 1482 1561 13
E 1483 1562 13
E 1484 1563 13
E 1485 1564 13
E 1486 1565 13
E 1487 1566 13
E 1488 1567 13
E 1491 1570 13
E 1492 1571 13
E 1495 1574 13
E 1496 1575 13
E 1497 1576 13
E 1498 1577 13
E 1499 1578 13
E 1500 1579 13
E 1503 1582 13
E 1504 1583 13
E 1506 1584 13
E 1507 1585 13
E 1508 1586 13
E 1509 1587 13
E 1510 1588 13
E 1511 1589 13
E 1512 1590 13
E 1515 1593 13
E 1516 1594 13
E 1517 1595 13
E 1518 1596 13
E 1519 1597 13
E 1520 1598 13
E 1521 1599 13
E 1522 1601 13
E 1523 1602 13
E 1524 1603 13
E 1525 1604 13
E 1526 1606 13
E 1527 1607 13
E 1528 1608 13
E 1529 1609 13
E 1530 1611 13
E 1531 1612 13
E 1532 1613 13
E 1533 1614 13
E 1534 1616 13
E 1535 1617 13
E 1536 1618 13
E 1537 1619 13
E 1538 1620 13
E 1539 1621 13
E 1540 1622 13
E 1541 1624 13
E 1542 1625 13
E 1543 1544 5
E 1544 1545 5
E 1545 1546 5
E 1546 1547 5
E 1547 1548 5
E 1548 1549 5
E 1549 1550 5
E 1550 1551 5
E 1551 1552 5
E 1552 1553 5
E 1553 1554 5
E 1554 1555 5
E 1555 1556 5
E 1556 1557 5
E 1557 1558 5
E 1558 1559 5
E 1559 1560 5
E 1560 1561 5
E 1561 1562 5
E 1562 1563 5
E 1563 1564 5
E 1564 1565 5
E 1565 1566 5
E 1566 1567 5
E 1567 1568 5
E 1568 1569 5
E 1569 1570 5
E 1570 1571 5
E 1571 1572 5
E 1572 1573 5
E 1573 1574 5
E 1574 1575 5
E 1575 1576 5
E 1576 1577 5
E 1577 1578 5
E 1578 1579 5
E 1579 1580 5
E 1580 1581 5
E 1581 1582 5
E 1582 1583 5
E 1584 1585 5
E 1585 1586 5
E 1586 1587 5
E 1587 1588 5
E 1588 1589 5
E 1589 1590 5
E 1590 1591 5
E 1591 1592 5
E 1592 1593 5
E 1593 1594 5
E 1594 1595 5
E 1595 1596 5
E 1596 1597 5
E 1597 1598 5
E 1598 1599 5
E 1599 1600 5
E 1600 1601 5
E 1601 1602 5
E 1603 1604 5
E 1604 1605 5
E 1605 1606 5
E 1606 1607 5
E 1607 1608 5
E 1608 1609 5
E 1609 1610 5
E 1610 1611 5
E 1613 1614 5
E 1614 1615 5
E 1615 1616 5
E 1616 1617 5
E 1617 1618 5
E 1618 1619 5
E 1619 1620 5
E 1620 1621 5
E 1621 1622 5
E 1622 1623 5
E 1623 1624 5
E 1624 1625 5
E 1543 1626 13
E 1544 1627 13
E 1545 1628 13
E 1546 1629 13
E 1547 1630 13
E 1548 1631 13
E 1549 1632 13
E 1550 1633 13
E 1551 1634 13
E 1552 1635 13
E 1553 1636 13
E 1554 1637 13
E 1555 1638 13
E 1556 1639 13
E 1557 1640 13
E 1558 1641 13
E 1559 1642 13
E 1560 1643 13
E 1561 1644 13
E 1562 1645 13
E 1563 1646 13
E 1564 1647 13
E 1565 1648 13
E 1566 1649 13
E 1567 1650 13
E 1570 1653 13
E 1571 1654 13
E 1574 1657 13
E 1575 1658 13
E 1578 1661 13
E 1579 1662 13
E 1580 1663 13
E 1581 1664 13
E 1583 1665 13
E 1584 1666 13
E 1586 1667 13
E 1587 1668 13
E 1588 1669 13
E 1591 1672 13
E 1592 1673 13
E 1595 1676 13
E 1598 1679 13
E 1599 1680 13
E 1600 1681 13
E 1601 1682 13
E 1602 1683 13
E 1603 1685 13
E 1604 1686 13
E 1605 1687 13
E 1606 1688 13
E 1607 1689 13
E 1608 1690 13
E 1609 1691 13
E 1610 1692 13
E 1611 1693 13
E 1612 1695 13
E 1613 1697 13
E 1614 1698 13
E 1615 1699 13
E 1616 1700 13
E 1617 1701 13
E 1618 1702 13
E 1619 1703 13
E 1620 1704 13
E 1621 1705 13
E 1622 1706 13
E 1623 1707 13
E 1624 1708 13
E 1625 1709 13
E 1626 1627 5
E 1627 1628 5
E 1628 1629 5
E 1629 1630 5
E 1630 1631 5
E 1631 1632 5
E 1632 1633 5
E 1633 1634 5
E 1634 1635 5
E 1635 1636 5
E 1636 1637 5
E 1637 1638 5
E 1638 1639 5
E 1639 1640 5
E 1640 1641 5
E 1641 1642 5
E 1642 1643 5
E 1643 1644 5
E 1644 1645 5
E 1645 1646 5
E 1646 1647 5
E 1647 1648 5
E 1648 1649 5
E 1649 1650 5
E 1650 1651 5
E 1651 1652 5
E 1652 1653 5
E 1653 1654 5
E 1654 1655 5
E 1655 1656 5
E 1656 1657 5
E 1657 1658 5
E 1658 1659 5
E 1659 1660 5
E 1660 1661 5
E 1661 1662 5
E 1662 1663 5
E 1663 1664 5
E 1667 1668 5
E 1668 1669 5
E 1669 1670 5
E 1670 1671 5
E 1671 1672 5
E 1672 1673 5
E 1673 1674 5
E 1674 1675 5
E 1675 1676 5
E 1676 1677 5
E 1677 1678 5
E 1678 1679 5
E 1679 1680 5
E 1680 1681 5
E 1681 1682 5
E 1682 1683 5
E 1683 1684 5
E 1684 1685 5
E 1685 1686 5
E 1686 1687 5
E 1687 1688 5
E 1688 1689 5
E 1689 1690 5
E 1690 1691 5
E 1691 1692 5
E 1692 1693 5
E 1693 1694 5
E 1694 1695 5
E 1695 1696 5
E 1696 1697 5
E 1697 1698 5
E 1698 1699 5
E 1699 1700 5
E 1700 1701 5
E 1701 1702 5
E 1702 1703 5
E 1703 1704 5
E 1704 1705 5
E 1705 1706 5
E 1706 1707 5
E 1707 1708 5
E 1708 1709 5
END

SECTION Terminals
Terminals 18
T 61
T 189
T 239
T 242
T 246
T 253
T 548
T 635
T 706
T 792
T 797
T 873
T 968
T 1036
T 1132
T 1208
T 1364
T 1452
END

EOF
